c   #vars: 148   #clauses: 922   #literals: 2644
c 
p cnf 148 922
-1 -2 0
-1 -3 0
-2 -3 0
-4 -5 0
-4 -6 0
-5 -6 0
-7 -8 0
-7 -9 0
-8 -9 0
-10 -11 0
-10 -12 0
-11 -12 0
-13 -14 0
-13 -15 0
-14 -15 0
-16 -17 0
-16 -18 0
-17 -18 0
-19 -20 0
-19 -21 0
-20 -21 0
-22 -23 0
-22 -24 0
-23 -24 0
-25 -26 0
-25 -27 0
-26 -27 0
54 55 56 -93 126 127 0
-93 111 112 113 126 127 0
-28 -29 0
-30 -31 0
-30 -32 0
-31 -32 0
-33 -34 0
-33 -35 0
-34 -35 0
-36 -37 0
-36 -38 0
-37 -38 0
-39 -40 0
-39 -41 0
-40 -41 0
-42 -43 0
-42 -44 0
-43 -44 0
-45 -46 0
-45 -47 0
-46 -47 0
-48 -49 0
-48 -50 0
-49 -50 0
-51 -52 0
-51 -53 0
-52 -53 0
-54 -55 0
-54 -56 0
-55 -56 0
-57 -58 0
-57 -59 0
-58 -59 0
1 2 3 143 144 145 0
-60 -61 0
-60 -62 0
-61 -62 0
-63 -64 0
-63 -65 0
-64 -65 0
-66 -67 0
-66 -68 0
-67 -68 0
-69 -70 0
-69 -71 0
-70 -71 0
-72 -73 0
-72 -74 0
-73 -74 0
-75 -76 0
-75 -77 0
-76 -77 0
-78 -79 0
-78 -80 0
-79 -80 0
-81 -82 0
-81 -83 0
-82 -83 0
-84 -85 0
-84 -86 0
-85 -86 0
-87 -88 0
-87 -89 0
-88 -89 0
-90 -91 0
-90 -92 0
-91 -92 0
-93 -94 0
-93 -95 0
-94 -95 0
-96 -97 0
-96 -98 0
-97 -98 0
-99 -100 0
-99 -101 0
-100 -101 0
42 43 44 114 115 116 0
-102 -103 0
-102 -104 0
-103 -104 0
-105 -106 0
-105 -107 0
-106 -107 0
-108 -109 0
-108 -110 0
-109 -110 0
-111 -112 0
-111 -113 0
-112 -113 0
19 20 21 114 115 116 0
-114 -115 0
-114 -116 0
-115 -116 0
1 2 3 108 109 110 0
-117 -118 0
-117 -119 0
-118 -119 0
-120 -121 0
-120 -122 0
-121 -122 0
42 43 44 78 79 80 0
-123 -124 0
-123 -125 0
-124 -125 0
4 5 6 66 67 68 0
-126 -127 0
-128 -129 0
-128 -130 0
-129 -130 0
-131 -132 0
-131 -133 0
-132 -133 0
16 17 18 105 106 107 0
-134 -135 0
-134 -136 0
-135 -136 0
-137 -138 0
-137 -139 0
-138 -139 0
4 5 6 87 88 89 0
-140 -141 0
-140 -142 0
-141 -142 0
39 40 41 120 121 122 0
-143 -144 0
-143 -145 0
-144 -145 0
39 40 41 131 132 133 0
-146 -147 0
-146 -148 0
-147 -148 0
75 76 77 117 118 119 0
-1 -22 0
-2 -23 0
-3 -24 0
33 34 35 69 70 71 0
-1 -30 0
-2 -31 0
-3 -32 0
30 31 32 75 76 77 0
-1 -39 0
-2 -40 0
-3 -41 0
16 17 18 75 76 77 0
-1 -78 0
-2 -79 0
-3 -80 0
69 70 71 75 76 77 0
-1 -84 0
-2 -85 0
-3 -86 0
48 49 50 117 118 119 0
-1 -108 0
-2 -109 0
-3 -110 0
13 14 15 75 76 77 0
-1 -114 0
-2 -115 0
-3 -116 0
10 11 12 75 76 77 0
-1 -128 0
-2 -129 0
-3 -130 0
36 37 38 39 40 41 0
-1 -143 0
-2 -144 0
-3 -145 0
10 11 12 102 103 104 0
-4 -7 0
-5 -8 0
-6 -9 0
13 14 15 69 70 71 0
-4 -13 0
-5 -14 0
-6 -15 0
22 23 24 84 85 86 0
-4 -39 0
-5 -40 0
-6 -41 0
96 97 98 137 138 139 0
-4 -66 0
-5 -67 0
-6 -68 0
22 23 24 75 76 77 0
-4 -78 0
-5 -79 0
-6 -80 0
13 14 15 93 94 95 0
-4 -87 0
-5 -88 0
-6 -89 0
1 2 3 22 23 24 0
-4 -120 0
-5 -121 0
-6 -122 0
22 23 24 36 37 38 0
-4 -123 0
-5 -124 0
-6 -125 0
22 23 24 33 34 35 0
-4 -137 0
-5 -138 0
-6 -139 0
22 23 24 30 31 32 0
-4 -143 0
-5 -144 0
-6 -145 0
19 20 21 117 118 119 0
-7 -16 0
-8 -17 0
-9 -18 0
87 88 89 120 121 122 0
-7 -19 0
-8 -20 0
-9 -21 0
81 82 83 146 147 148 0
-7 -42 0
-8 -43 0
-9 -44 0
93 94 95 137 138 139 0
-7 -114 0
-8 -115 0
-9 -116 0
7 8 9 42 43 44 0
-7 -134 0
-8 -135 0
-9 -136 0
51 52 53 60 61 62 0
-10 -36 0
-11 -37 0
-12 -38 0
51 52 53 140 141 142 0
-10 -72 0
-11 -73 0
-12 -74 0
60 61 62 131 132 133 0
-10 -75 0
-11 -76 0
-12 -77 0
48 49 50 120 121 122 0
-10 -87 0
-11 -88 0
-12 -89 0
19 20 21 81 82 83 0
-10 -102 0
-11 -103 0
-12 -104 0
84 85 86 114 115 116 0
-10 -114 0
-11 -115 0
-12 -116 0
1 2 3 114 115 116 0
-13 -30 0
-14 -31 0
-15 -32 0
60 61 62 128 129 130 0
-13 -69 0
-14 -70 0
-15 -71 0
51 52 53 81 82 83 0
-13 -75 0
-14 -76 0
-15 -77 0
99 100 101 137 138 139 0
-13 -78 0
-14 -79 0
-15 -80 0
42 43 44 72 73 74 0
-13 -93 0
-14 -94 0
-15 -95 0
22 23 24 137 138 139 0
-13 -120 0
-14 -121 0
-15 -122 0
30 31 32 105 106 107 0
-16 -39 0
-17 -40 0
-18 -41 0
13 14 15 30 31 32 0
-16 -75 0
-17 -76 0
-18 -77 0
72 73 74 131 132 133 0
-16 -96 0
-17 -97 0
-18 -98 0
87 88 89 111 112 113 0
-16 -105 0
-17 -106 0
-18 -107 0
30 31 32 90 91 92 0
-16 -123 0
-17 -124 0
-18 -125 0
33 34 35 143 144 145 0
-16 -128 0
-17 -129 0
-18 -130 0
84 85 86 137 138 139 0
-16 -140 0
-17 -141 0
-18 -142 0
45 46 47 48 49 50 0
-19 -36 0
-20 -37 0
-21 -38 0
4 5 6 123 124 125 0
-19 -54 0
-20 -55 0
-21 -56 0
10 11 12 87 88 89 0
-19 -69 0
-20 -70 0
-21 -71 0
4 5 6 120 121 122 0
-19 -78 0
-20 -79 0
-21 -80 0
1 2 3 84 85 86 0
-19 -81 0
-20 -82 0
-21 -83 0
93 94 95 102 103 104 0
-19 -87 0
-20 -88 0
-21 -89 0
13 14 15 78 79 80 0
-19 -96 0
-20 -97 0
-21 -98 0
33 34 35 54 55 56 0
-19 -102 0
-20 -103 0
-21 -104 0
19 20 21 78 79 80 0
-19 -114 0
-20 -115 0
-21 -116 0
1 2 3 30 31 32 0
-19 -117 0
-20 -118 0
-21 -119 0
19 20 21 137 138 139 0
-19 -137 0
-20 -138 0
-21 -139 0
4 5 6 13 14 15 0
-19 -140 0
-20 -141 0
-21 -142 0
1 2 3 39 40 41 0
-22 -30 0
-23 -31 0
-24 -32 0
36 37 38 60 61 62 0
-22 -33 0
-23 -34 0
-24 -35 0
-22 -36 0
-23 -37 0
-24 -38 0
42 43 44 128 129 130 0
-22 -54 0
-23 -55 0
-24 -56 0
45 46 47 87 88 89 0
-22 -69 0
-23 -70 0
-24 -71 0
48 49 50 81 82 83 0
-22 -75 0
-23 -76 0
-24 -77 0
99 100 101 108 109 110 0
-22 -84 0
-23 -85 0
-24 -86 0
42 43 44 81 82 83 0
-22 -137 0
-23 -138 0
-24 -139 0
42 43 44 117 118 119 0
-22 -143 0
-23 -144 0
-24 -145 0
78 79 80 134 135 136 0
-25 -81 0
-26 -82 0
-27 -83 0
19 20 21 96 97 98 0
-25 -111 0
-26 -112 0
-27 -113 0
108 109 110 120 121 122 0
-25 -123 0
-26 -124 0
-27 -125 0
-25 -131 0
-26 -132 0
-27 -133 0
114 115 116 120 121 122 0
-25 -143 0
-26 -144 0
-27 -145 0
90 91 92 134 135 136 0
-54 111 112 113 126 127 0
-28 -49 0
-29 -50 0
54 55 56 114 115 116 0
93 94 95 -111 126 127 0
-28 -115 0
-29 -116 0
16 17 18 123 124 125 0
-54 93 94 95 126 127 0
-28 -144 0
-29 -145 0
131 132 133 146 147 148 0
-30 -75 0
-31 -76 0
-32 -77 0
96 97 98 140 141 142 0
-30 -90 0
-31 -91 0
-32 -92 0
63 64 65 111 112 113 0
-30 -105 0
-31 -106 0
-32 -107 0
57 58 59 143 144 145 0
-30 -108 0
-31 -109 0
-32 -110 0
19 20 21 69 70 71 0
-30 -120 0
-31 -121 0
-32 -122 0
10 11 12 36 37 38 0
-33 -42 0
-34 -43 0
-35 -44 0
36 37 38 51 52 53 0
-33 -54 0
-34 -55 0
-35 -56 0
48 49 50 143 144 145 0
-33 -69 0
-34 -70 0
-35 -71 0
114 115 116 117 118 119 0
-33 -81 0
-34 -82 0
-35 -83 0
54 55 56 90 91 92 0
-33 -84 0
-34 -85 0
-35 -86 0
99 100 101 114 115 116 0
-33 -128 0
-34 -129 0
-35 -130 0
42 43 44 134 135 136 0
-33 -143 0
-34 -144 0
-35 -145 0
39 40 41 117 118 119 0
-36 -39 0
-37 -40 0
-38 -41 0
28 29 48 49 50 -114 0
-36 -42 0
-37 -43 0
-38 -44 0
4 5 6 39 40 41 0
-36 -51 0
-37 -52 0
-38 -53 0
123 124 125 146 147 148 0
-36 -60 0
-37 -61 0
-38 -62 0
-36 -117 0
-37 -118 0
-38 -119 0
57 58 59 140 141 142 0
-39 -45 0
-40 -46 0
-41 -47 0
99 100 101 123 124 125 0
-39 -54 0
-40 -55 0
-41 -56 0
84 85 86 128 129 130 0
-39 -99 0
-40 -100 0
-41 -101 0
25 26 27 111 112 113 0
-39 -105 0
-40 -106 0
-41 -107 0
36 37 38 117 118 119 0
-39 -108 0
-40 -109 0
-41 -110 0
39 40 41 108 109 110 0
-39 -117 0
-40 -118 0
-41 -119 0
120 121 122 143 144 145 0
-39 -120 0
-40 -121 0
-41 -122 0
131 132 133 140 141 142 0
-39 -131 0
-40 -132 0
-41 -133 0
30 31 32 108 109 110 0
-42 -72 0
-43 -73 0
-44 -74 0
22 23 24 54 55 56 0
-42 -78 0
-43 -79 0
-44 -80 0
72 73 74 84 85 86 0
-42 -81 0
-43 -82 0
-44 -83 0
54 55 56 75 76 77 0
-42 -114 0
-43 -115 0
-44 -116 0
54 55 56 -111 126 127 0
-42 -117 0
-43 -118 0
-44 -119 0
81 82 83 131 132 133 0
-42 -128 0
-43 -129 0
-44 -130 0
7 8 9 16 17 18 0
-42 -134 0
-43 -135 0
-44 -136 0
78 79 80 93 94 95 0
-45 -48 0
-46 -49 0
-47 -50 0
13 14 15 120 121 122 0
-45 -78 0
-46 -79 0
-47 -80 0
-45 -87 0
-46 -88 0
-47 -89 0
25 26 27 143 144 145 0
-45 -123 0
-46 -124 0
-47 -125 0
72 73 74 105 106 107 0
-48 -81 0
-49 -82 0
-50 -83 0
60 61 62 72 73 74 0
-48 -117 0
-49 -118 0
-50 -119 0
10 11 12 72 73 74 0
-48 -120 0
-49 -121 0
-50 -122 0
63 64 65 72 73 74 0
-48 -137 0
-49 -138 0
-50 -139 0
57 58 59 72 73 74 0
-48 -140 0
-49 -141 0
-50 -142 0
39 40 41 45 46 47 0
-48 -143 0
-49 -144 0
-50 -145 0
16 17 18 39 40 41 0
-51 -60 0
-52 -61 0
-53 -62 0
63 64 65 84 85 86 0
-51 -81 0
-52 -82 0
-53 -83 0
90 91 92 131 132 133 0
-51 -140 0
-52 -141 0
-53 -142 0
33 34 35 81 82 83 0
-54 -75 0
-55 -76 0
-56 -77 0
-54 -87 0
-55 -88 0
-56 -89 0
78 79 80 140 141 142 0
-54 -90 0
-55 -91 0
-56 -92 0
-54 -105 0
-55 -106 0
-56 -107 0
117 118 119 123 124 125 0
-54 -114 0
-55 -115 0
-56 -116 0
84 85 86 134 135 136 0
-55 -126 0
-56 -127 0
25 26 27 131 132 133 0
-57 -72 0
-58 -73 0
-59 -74 0
16 17 18 140 141 142 0
-57 -81 0
-58 -82 0
-59 -83 0
102 103 104 123 124 125 0
-57 -140 0
-58 -141 0
-59 -142 0
25 26 27 123 124 125 0
-57 -143 0
-58 -144 0
-59 -145 0
30 31 32 120 121 122 0
-60 -72 0
-61 -73 0
-62 -74 0
57 58 59 81 82 83 0
-60 -78 0
-61 -79 0
-62 -80 0
28 29 -114 143 144 145 0
-60 -128 0
-61 -129 0
-62 -130 0
54 55 56 87 88 89 0
-60 -131 0
-61 -132 0
-62 -133 0
28 29 114 115 116 -143 0
-63 -72 0
-64 -73 0
-65 -74 0
-63 -84 0
-64 -85 0
-65 -86 0
60 61 62 78 79 80 0
-63 -111 0
-64 -112 0
-65 -113 0
75 76 77 143 144 145 0
-63 -123 0
-64 -124 0
-65 -125 0
22 23 24 69 70 71 0
-63 -131 0
-64 -132 0
-65 -133 0
-66 -120 0
-67 -121 0
-68 -122 0
111 112 113 137 138 139 0
-66 -134 0
-67 -135 0
-68 -136 0
114 115 116 137 138 139 0
-66 -137 0
-67 -138 0
-68 -139 0
28 29 48 49 50 -143 0
-66 -140 0
-67 -141 0
-68 -142 0
54 55 56 105 106 107 0
-69 -75 0
-70 -76 0
-71 -77 0
63 64 65 123 124 125 0
-69 -99 0
-70 -100 0
-71 -101 0
4 5 6 137 138 139 0
-69 -105 0
-70 -106 0
-71 -107 0
108 109 110 111 112 113 0
-72 -84 0
-73 -85 0
-74 -86 0
39 40 41 99 100 101 0
-72 -105 0
-73 -106 0
-74 -107 0
93 94 95 108 109 110 0
-72 -131 0
-73 -132 0
-74 -133 0
19 20 21 87 88 89 0
-75 -117 0
-76 -118 0
-77 -119 0
25 26 27 81 82 83 0
-75 -143 0
-76 -144 0
-77 -145 0
69 70 71 105 106 107 0
-78 -93 0
-79 -94 0
-80 -95 0
16 17 18 96 97 98 0
-78 -134 0
-79 -135 0
-80 -136 0
99 100 101 120 121 122 0
-78 -137 0
-79 -138 0
-80 -139 0
4 5 6 7 8 9 0
-78 -140 0
-79 -141 0
-80 -142 0
33 34 35 84 85 86 0
-81 -131 0
-82 -132 0
-83 -133 0
66 67 68 140 141 142 0
-81 -146 0
-82 -147 0
-83 -148 0
99 100 101 105 106 107 0
-84 -114 0
-85 -115 0
-86 -116 0
69 70 71 99 100 101 0
-84 -128 0
-85 -129 0
-86 -130 0
-84 -134 0
-85 -135 0
-86 -136 0
99 100 101 146 147 148 0
-84 -137 0
-85 -138 0
-86 -139 0
-87 -111 0
-88 -112 0
-89 -113 0
63 64 65 131 132 133 0
-87 -120 0
-88 -121 0
-89 -122 0
93 94 95 128 129 130 0
-90 -131 0
-91 -132 0
-92 -133 0
-90 -134 0
-91 -135 0
-92 -136 0
123 124 125 137 138 139 0
-93 -102 0
-94 -103 0
-95 -104 0
102 103 104 128 129 130 0
-93 -108 0
-94 -109 0
-95 -110 0
28 29 -48 114 115 116 0
-94 -126 0
-95 -127 0
19 20 21 102 103 104 0
-93 -128 0
-94 -129 0
-95 -130 0
45 46 47 123 124 125 0
-93 -137 0
-94 -138 0
-95 -139 0
33 34 35 42 43 44 0
-96 -134 0
-97 -135 0
-98 -136 0
78 79 80 137 138 139 0
-96 -137 0
-97 -138 0
-98 -139 0
66 67 68 137 138 139 0
-96 -140 0
-97 -141 0
-98 -142 0
-99 -105 0
-100 -106 0
-101 -107 0
45 46 47 78 79 80 0
-99 -108 0
-100 -109 0
-101 -110 0
1 2 3 128 129 130 0
-99 -114 0
-100 -115 0
-101 -116 0
108 109 110 128 129 130 0
-99 -120 0
-100 -121 0
-101 -122 0
33 34 35 128 129 130 0
-99 -123 0
-100 -124 0
-101 -125 0
16 17 18 128 129 130 0
-99 -137 0
-100 -138 0
-101 -139 0
1 2 3 78 79 80 0
-99 -146 0
-100 -147 0
-101 -148 0
36 37 38 42 43 44 0
-102 -123 0
-103 -124 0
-104 -125 0
39 40 41 105 106 107 0
-102 -128 0
-103 -129 0
-104 -130 0
7 8 9 134 135 136 0
-108 -111 0
-109 -112 0
-110 -113 0
19 20 21 36 37 38 0
-108 -120 0
-109 -121 0
-110 -122 0
48 49 50 137 138 139 0
-108 -128 0
-109 -129 0
-110 -130 0
111 112 113 143 144 145 0
-112 -126 0
-113 -127 0
96 97 98 134 135 136 0
-111 -137 0
-112 -138 0
-113 -139 0
66 67 68 134 135 136 0
-111 -143 0
-112 -144 0
-113 -145 0
10 11 12 114 115 116 0
-114 -117 0
-115 -118 0
-116 -119 0
22 23 24 143 144 145 0
-114 -120 0
-115 -121 0
-116 -122 0
19 20 21 54 55 56 0
-114 -137 0
-115 -138 0
-116 -139 0
66 67 68 120 121 122 0
-117 -123 0
-118 -124 0
-119 -125 0
4 5 6 143 144 145 0
-120 -143 0
-121 -144 0
-122 -145 0
4 5 6 78 79 80 0
-123 -137 0
-124 -138 0
-125 -139 0
28 29 -48 143 144 145 0
-123 -146 0
-124 -147 0
-125 -148 0
48 49 50 140 141 142 0
-131 -140 0
-132 -141 0
-133 -142 0
7 8 9 114 115 116 0
-131 -146 0
-132 -147 0
-133 -148 0
7 8 9 19 20 21 0
19 20 21 140 141 142 0
39 40 41 54 55 56 0
